# Cost: 343

# Tail Head Net
241 242 1
242 272 1
272 1172 1
492 493 1
493 494 1
493 523 1
494 495 1
495 496 1
496 497 1
497 498 1
498 499 1
499 500 1
500 501 1
501 502 1
502 503 1
503 504 1
504 505 1
505 506 1
506 507 1
507 508 1
508 509 1
509 510 1
523 553 1
553 583 1
583 613 1
613 643 1
643 673 1
673 703 1
703 733 1
733 763 1
763 793 1
793 823 1
823 853 1
853 883 1
1172 1173 1
1173 1174 1
1174 1175 1
1175 1176 1
1176 1177 1
1177 1207 1
1207 1208 1
1208 1209 1
1209 1210 1
1210 1240 1
1240 1270 1
1270 1271 1
1271 1272 1
1272 1302 1
1302 1332 1
1332 1362 1
1362 1392 1
1392 492 1
884 885 2
884 1784 2
885 886 2
886 887 2
887 888 2
888 889 2
889 890 2
890 891 2
891 892 2
892 893 2
893 894 2
1773 873 2
1774 1773 2
1775 1774 2
1776 1775 2
1777 1776 2
1778 1777 2
1779 1778 2
1780 1779 2
1781 1780 2
1782 1781 2
1783 1782 2
1784 1783 2
17 18 3
18 19 3
19 20 3
20 21 3
21 22 3
22 23 3
23 24 3
24 25 3
47 17 3
95 96 3
96 996 3
124 125 3
125 95 3
154 124 3
184 154 3
214 184 3
243 244 3
244 214 3
273 243 3
303 273 3
333 303 3
362 363 3
363 333 3
392 362 3
422 392 3
451 452 3
452 422 3
481 451 3
511 481 3
541 511 3
942 943 3
943 944 3
944 945 3
945 946 3
946 947 3
947 47 3
967 968 3
968 969 3
969 970 3
970 971 3
971 972 3
972 942 3
996 997 3
997 967 3
37 7 4
48 49 4
49 50 4
50 51 4
51 52 4
52 53 4
53 54 4
54 55 4
55 56 4
56 26 4
67 37 4
67 68 4
68 69 4
69 70 4
70 71 4
71 72 4
72 73 4
73 74 4
74 75 4
75 76 4
76 77 4
77 78 4
78 48 4
97 67 4
127 97 4
156 157 4
157 127 4
186 156 4
215 216 4
216 186 4
245 215 4
275 245 4
305 275 4
335 305 4
364 365 4
365 335 4
394 364 4
424 394 4
454 424 4
484 454 4
514 484 4
544 514 4
573 574 4
574 544 4
603 573 4
633 603 4
661 662 4
662 663 4
663 633 4
3 33 5
33 63 5
63 93 5
93 123 5
123 153 5
151 181 5
152 151 5
153 152 5
181 211 5
269 299 6
270 269 6
293 323 6
294 293 6
295 294 6
296 295 6
297 296 6
298 297 6
299 298 6
318 348 6
319 318 6
320 319 6
321 320 6
322 321 6
323 322 6
342 372 6
343 342 6
344 343 6
345 344 6
346 345 6
347 346 6
348 347 6
372 402 6
399 429 6
400 399 6
401 400 6
402 401 6
428 458 6
429 428 6
458 488 6
488 518 6
518 548 6
547 577 6
548 547 6
577 607 6
605 635 6
606 605 6
607 606 6
635 665 6
665 695 6
691 721 6
692 691 6
693 692 6
694 693 6
695 694 6
331 301 7
361 331 7
571 1471 7
601 571 7
1261 361 7
1291 1261 7
1321 1291 7
1351 1321 7
1381 1351 7
1411 1381 7
1441 1411 7
1471 1441 7
180 210 8
210 240 8
240 1140 8
540 570 8
570 600 8
600 630 8
630 660 8
660 690 8
1140 1170 8
1170 1200 8
1200 1230 8
1230 1260 8
1260 1290 8
1290 1320 8
1320 1350 8
1350 1380 8
1380 1410 8
1410 1440 8
1440 540 8
2 902 9
28 29 9
902 903 9
903 904 9
904 905 9
905 906 9
906 907 9
907 908 9
908 909 9
909 910 9
910 911 9
911 912 9
912 913 9
913 914 9
914 915 9
915 916 9
916 917 9
917 918 9
918 919 9
919 920 9
920 921 9
921 922 9
922 923 9
923 924 9
924 925 9
925 926 9
926 927 9
927 928 9
928 28 9
841 842 10
842 843 10
843 844 10
844 845 10
845 846 10
846 847 10
847 848 10
848 849 10
849 1749 10
854 855 10
855 856 10
856 857 10
857 858 10
858 859 10
859 860 10
860 861 10
861 862 10
862 863 10
863 864 10
864 865 10
865 866 10
866 896 10
896 897 10
897 898 10
898 899 10
899 900 10
1749 1750 10
1750 1751 10
1751 1752 10
1752 1753 10
1753 1754 10
1754 854 10
121 1021 11
1021 1051 11
1051 1081 11
1081 1111 11
1111 1141 11
1141 1171 11
1171 1201 11
1201 1231 11
1231 1232 11
1232 1262 11
1262 1292 11
1292 1322 11
1322 1352 11
1352 1382 11
1382 1412 11
1412 1442 11
1442 1472 11
1472 1502 11
1502 1532 11
1532 1562 11
1562 1592 11
1592 1622 11
1621 1651 11
1622 1621 11
1651 1681 11
1681 1711 11
1711 1741 11
1741 1771 11
1771 871 11
